edata/random/100.tsp
NAME : 0Farmland
COMMENT :  100
TYPE : TSP
DIMENSION : 100
EDGE_WEIGHT_TYPE : ATT
NODE_COORD_SECTION
1 0.97 0.29
2 0.47 0.92
3 0.32 0.72
4 0.36 0.55
5 0.63 0.83
6 0.46 0.57
7 0.81 0.70
8 0.67 0.20
9 0.93 0.02
10 0.39 0.36
11 0.96 0.38
12 0.83 0.69
13 0.58 0.31
14 0.93 0.49
15 0.79 0.83
16 0.90 0.29
17 0.08 0.41
18 0.57 0.58
19 0.74 0.67
20 0.61 0.47
21 0.19 0.16
22 0.96 0.04
23 0.65 0.71
24 0.36 0.25
25 0.24 0.08
26 0.51 0.71
27 0.11 0.49
28 0.04 0.97
29 0.13 0.05
30 0.06 0.31
31 0.33 0.01
32 0.58 0.85
33 0.27 0.23
34 0.14 0.99
35 0.95 0.42
36 0.55 0.46
37 0.49 0.14
38 0.94 0.46
39 0.42 0.01
40 0.80 0.62
41 0.06 0.60
42 0.45 0.83
43 0.25 0.81
44 0.46 0.55
45 0.84 0.01
46 0.53 0.11
47 0.05 0.56
48 0.09 0.82
49 0.69 0.63
50 0.83 0.59
51 0.81 0.22
52 0.93 0.88
53 0.38 0.37
54 0.54 0.05
55 0.81 0.89
56 0.63 0.53
57 0.45 0.50
58 0.53 0.07
59 0.15 0.76
60 0.59 0.61
61 0.17 0.70
62 0.01 0.09
63 0.66 0.06
64 0.05 0.85
65 0.16 0.86
66 0.91 0.53
67 0.06 0.74
68 0.80 0.19
69 0.52 0.03
70 0.07 0.06
71 0.37 0.13
72 0.56 0.16
73 0.19 0.17
74 0.40 0.53
75 0.05 0.85
76 0.24 0.02
77 0.64 0.20
78 0.93 0.19
79 0.14 0.46
80 0.65 0.57
81 0.35 0.18
82 0.04 0.96
83 0.84 0.94
84 0.67 0.24
85 0.05 0.94
86 0.90 0.96
87 0.81 0.09
88 0.01 0.22
89 0.23 0.83
90 0.10 0.33
91 0.73 0.93
92 0.35 0.60
93 0.03 0.27
94 0.56 0.80
95 0.51 0.08
96 0.49 0.76
97 0.93 0.21
98 0.75 0.93
99 0.67 0.47
100 0.87 0.20
EOF
