edata/random/100.opt.tour
NAME : 100.opt.tour
TYPE : TOUR
DIMENSION : 100
TOUR_SECTION
0.47
0.43
0.48
0.35
0.69
0.13
0.98
0.17
0.13
0.19
0.03
0.50
0.32
0.26
0.43
0.07
0.01
0.65
0.21
0.09
0.41
0.41
0.53
0.58
0.42
0.84
0.91
0.92
0.08
0.64
0.89
0.61
0.17
0.70
0.78
0.63
0.95
0.33
0.32
0.31
0.53
0.90
0.62
0.13
0.49
0.00
0.44
0.43
0.90
0.78
0.75
0.53
0.00
0.45
0.76
0.01
0.63
0.78
0.75
0.36
0.94
0.41
0.40
0.52
0.55
0.21
0.16
0.25
0.56
0.13
0.71
0.64
0.93
0.47
0.99
0.96
0.89
0.99
0.36
0.26
0.12
0.53
0.36
0.99
0.77
0.99
0.04
0.33
0.02
0.05
0.54
0.71
0.43
0.62
0.95
0.95
0.51
0.62
0.86
0.34
-1
EOF
